
  12    4
  10   10   10   10

   0   0   0   0   0   3 2 3 4 
   6  10  10  10  10   2 11 5 
   5  10  10  10  10   2 11 5 
   7  10  10  10  10   3 11 10 6 
   7  10  10  10  10   2 10 6 
   1  10  10  10  10   1 7 
   4  10  10  10  10   1 8 
   3  10  10  10  10   1 9 
   9  10  10  10  10   1 12
   4  10  10  10  10   1 12
   7  10  10  10  10   1 12
   0   0   0   0   0   0 
